NAME          
ROWS
 N  OBJ
 L  c2
 L  c3
 L  c4
 L  c5
 L  c6
 G  c1
COLUMNS
    ss[1]     c1        1
    ss[1]     OBJ       1000
    s[1]      c2        1
    s[1]      OBJ       -1000
    s[2]      c3        1
    s[2]      OBJ       -1000
    s[3]      c4        1
    s[3]      OBJ       -1000
    s[4]      c5        1
    s[4]      OBJ       -1000
    s[5]      c6        1
    s[5]      OBJ       -1000
    MARKER    'MARKER'                 'INTORG'
    x[1]      c2        196
    x[1]      c3        916
    x[1]      c4        512
    x[1]      c5        459
    x[1]      c6        260
    x[1]      c1        556
    x[1]      OBJ       -269
    x[2]      c2        780
    x[2]      c3        485
    x[2]      c4        182
    x[2]      c5        284
    x[2]      c6        64
    x[2]      c1        125
    x[2]      OBJ       -550
    x[3]      c2        104
    x[3]      c3        585
    x[3]      c4        713
    x[3]      c5        625
    x[3]      c6        263
    x[3]      c1        736
    x[3]      OBJ       -127
    x[4]      c2        74
    x[4]      c3        316
    x[4]      c4        94
    x[4]      c5        253
    x[4]      c6        997
    x[4]      c1        557
    x[4]      OBJ       -129
    x[5]      c2        440
    x[5]      c3        549
    x[5]      c4        203
    x[5]      c5        88
    x[5]      c6        613
    x[5]      c1        301
    x[5]      OBJ       -139
    x[6]      c2        177
    x[6]      c3        903
    x[6]      c4        317
    x[6]      c5        737
    x[6]      c6        304
    x[6]      c1        6
    x[6]      OBJ       -913
    x[7]      c2        34
    x[7]      c3        579
    x[7]      c4        389
    x[7]      c5        933
    x[7]      c6        157
    x[7]      c1        111
    x[7]      OBJ       -313
    x[8]      c2        694
    x[8]      c3        478
    x[8]      c4        929
    x[8]      c5        57
    x[8]      c6        878
    x[8]      c1        16
    x[8]      OBJ       -828
    x[9]      c2        708
    x[9]      c3        148
    x[9]      c4        748
    x[9]      c5        658
    x[9]      c6        955
    x[9]      c1        704
    x[9]      OBJ       -304
    x[10]     c2        499
    x[10]     c3        60
    x[10]     c4        451
    x[10]     c5        949
    x[10]     c6        245
    x[10]     c1        952
    x[10]     OBJ       -19
    x[11]     c2        912
    x[11]     c3        412
    x[11]     c4        860
    x[11]     c5        114
    x[11]     c6        626
    x[11]     c1        408
    x[11]     OBJ       -430
    x[12]     c2        309
    x[12]     c3        447
    x[12]     c4        513
    x[12]     c5        131
    x[12]     c6        418
    x[12]     c1        492
    x[12]     OBJ       -38
    x[13]     c2        366
    x[13]     c3        448
    x[13]     c4        382
    x[13]     c5        412
    x[13]     c6        660
    x[13]     c1        163
    x[13]     OBJ       -629
    x[14]     c2        137
    x[14]     c3        359
    x[14]     c4        350
    x[14]     c5        785
    x[14]     c6        42
    x[14]     c1        938
    x[14]     OBJ       151
    x[15]     c2        149
    x[15]     c3        573
    x[15]     c4        904
    x[15]     c5        888
    x[15]     c6        719
    x[15]     c1        315
    x[15]     OBJ       -772
    x[16]     c2        190
    x[16]     c3        391
    x[16]     c4        936
    x[16]     c5        702
    x[16]     c6        891
    x[16]     c1        949
    x[16]     OBJ       -136
    x[17]     c2        636
    x[17]     c3        513
    x[17]     c4        522
    x[17]     c5        816
    x[17]     c6        852
    x[17]     c1        670
    x[17]     OBJ       -91
    x[18]     c2        188
    x[18]     c3        563
    x[18]     c4        459
    x[18]     c5        725
    x[18]     c6        595
    x[18]     c1        1000
    x[18]     OBJ       -91
    x[19]     c2        647
    x[19]     c3        630
    x[19]     c4        773
    x[19]     c5        597
    x[19]     c6        715
    x[19]     c1        457
    x[19]     OBJ       -634
    x[20]     c2        400
    x[20]     c3        596
    x[20]     c4        29
    x[20]     c5        738
    x[20]     c6        539
    x[20]     c1        816
    x[20]     OBJ       -127
    x[21]     c2        331
    x[21]     c3        526
    x[21]     c4        226
    x[21]     c5        794
    x[21]     c6        488
    x[21]     c1        357
    x[21]     OBJ       -473
    x[22]     c2        676
    x[22]     c3        484
    x[22]     c4        889
    x[22]     c5        763
    x[22]     c6        883
    x[22]     c1        495
    x[22]     OBJ       -693
    x[23]     c2        292
    x[23]     c3        570
    x[23]     c4        210
    x[23]     c5        407
    x[23]     c6        161
    x[23]     c1        916
    x[23]     OBJ       377
    x[24]     c2        952
    x[24]     c3        782
    x[24]     c4        487
    x[24]     c5        767
    x[24]     c6        475
    x[24]     c1        852
    x[24]     OBJ       -218
    x[25]     c2        761
    x[25]     c3        96
    x[25]     c4        148
    x[25]     c5        485
    x[25]     c6        795
    x[25]     c1        614
    x[25]     OBJ       -222
    x[26]     c2        957
    x[26]     c3        328
    x[26]     c4        481
    x[26]     c5        254
    x[26]     c6        680
    x[26]     c1        161
    x[26]     OBJ       -643
    x[27]     c2        151
    x[27]     c3        781
    x[27]     c4        952
    x[27]     c5        694
    x[27]     c6        300
    x[27]     c1        60
    x[27]     OBJ       -908
    x[28]     c2        34
    x[28]     c3        241
    x[28]     c4        588
    x[28]     c5        795
    x[28]     c6        489
    x[28]     c1        382
    x[28]     OBJ       -419
    x[29]     c2        419
    x[29]     c3        619
    x[29]     c4        916
    x[29]     c5        649
    x[29]     c6        868
    x[29]     c1        373
    x[29]     OBJ       -634
    x[30]     c2        169
    x[30]     c3        908
    x[30]     c4        146
    x[30]     c5        162
    x[30]     c6        304
    x[30]     c1        570
    x[30]     OBJ       -92
    x[31]     c2        359
    x[31]     c3        47
    x[31]     c4        119
    x[31]     c5        811
    x[31]     c6        82
    x[31]     c1        182
    x[31]     OBJ       -233
    x[32]     c2        873
    x[32]     c3        89
    x[32]     c4        608
    x[32]     c5        956
    x[32]     c6        698
    x[32]     c1        934
    x[32]     OBJ       -61
    x[33]     c2        845
    x[33]     c3        511
    x[33]     c4        569
    x[33]     c5        955
    x[33]     c6        884
    x[33]     c1        129
    x[33]     OBJ       -717
    x[34]     c2        316
    x[34]     c3        662
    x[34]     c4        758
    x[34]     c5        792
    x[34]     c6        977
    x[34]     c1        542
    x[34]     OBJ       -655
    x[35]     c2        363
    x[35]     c3        981
    x[35]     c4        61
    x[35]     c5        299
    x[35]     c6        209
    x[35]     c1        767
    x[35]     OBJ       143
    x[36]     c2        47
    x[36]     c3        552
    x[36]     c4        222
    x[36]     c5        484
    x[36]     c6        701
    x[36]     c1        964
    x[36]     OBJ       228
    x[37]     c2        317
    x[37]     c3        602
    x[37]     c4        531
    x[37]     c5        994
    x[37]     c6        120
    x[37]     c1        896
    x[37]     OBJ       269
    x[38]     c2        242
    x[38]     c3        846
    x[38]     c4        143
    x[38]     c5        688
    x[38]     c6        444
    x[38]     c1        350
    x[38]     OBJ       -211
    x[39]     c2        487
    x[39]     c3        123
    x[39]     c4        166
    x[39]     c5        417
    x[39]     c6        333
    x[39]     c1        178
    x[39]     OBJ       -191
    x[40]     c2        643
    x[40]     c3        47
    x[40]     c4        664
    x[40]     c5        487
    x[40]     c6        412
    x[40]     c1        557
    x[40]     OBJ       -121
    x[41]     c2        966
    x[41]     c3        723
    x[41]     c4        361
    x[41]     c5        763
    x[41]     c6        307
    x[41]     c1        975
    x[41]     OBJ       -132
    x[42]     c2        913
    x[42]     c3        347
    x[42]     c4        455
    x[42]     c5        300
    x[42]     c6        800
    x[42]     c1        70
    x[42]     OBJ       -900
    x[43]     c2        813
    x[43]     c3        196
    x[43]     c4        19
    x[43]     c5        927
    x[43]     c6        773
    x[43]     c1        226
    x[43]     OBJ       -569
    x[44]     c2        486
    x[44]     c3        61
    x[44]     c4        166
    x[44]     c5        102
    x[44]     c6        472
    x[44]     c1        356
    x[44]     OBJ       -137
    x[45]     c2        677
    x[45]     c3        183
    x[45]     c4        228
    x[45]     c5        356
    x[45]     c6        512
    x[45]     c1        404
    x[45]     OBJ       -397
    x[46]     c2        502
    x[46]     c3        215
    x[46]     c4        193
    x[46]     c5        742
    x[46]     c6        797
    x[46]     c1        79
    x[46]     OBJ       -721
    x[47]     c2        260
    x[47]     c3        574
    x[47]     c4        554
    x[47]     c5        987
    x[47]     c6        648
    x[47]     c1        833
    x[47]     OBJ       -244
    x[48]     c2        36
    x[48]     c3        122
    x[48]     c4        80
    x[48]     c5        441
    x[48]     c6        948
    x[48]     c1        616
    x[48]     OBJ       159
    x[49]     c2        830
    x[49]     c3        549
    x[49]     c4        723
    x[49]     c5        848
    x[49]     c6        771
    x[49]     c1        575
    x[49]     OBJ       -425
    x[50]     c2        249
    x[50]     c3        346
    x[50]     c4        123
    x[50]     c5        66
    x[50]     c6        671
    x[50]     c1        987
    x[50]     OBJ       611
    x[51]     c2        618
    x[51]     c3        966
    x[51]     c4        273
    x[51]     c5        106
    x[51]     c6        251
    x[51]     c1        340
    x[51]     OBJ       -393
    x[52]     c2        194
    x[52]     c3        626
    x[52]     c4        340
    x[52]     c5        150
    x[52]     c6        510
    x[52]     c1        794
    x[52]     OBJ       204
    x[53]     c2        76
    x[53]     c3        32
    x[53]     c4        653
    x[53]     c5        504
    x[53]     c6        725
    x[53]     c1        321
    x[53]     OBJ       -153
    x[54]     c2        16
    x[54]     c3        480
    x[54]     c4        672
    x[54]     c5        17
    x[54]     c6        807
    x[54]     c1        337
    x[54]     OBJ       -451
    x[55]     c2        273
    x[55]     c3        486
    x[55]     c4        250
    x[55]     c5        149
    x[55]     c6        863
    x[55]     c1        580
    x[55]     OBJ       -21
    x[56]     c2        91
    x[56]     c3        378
    x[56]     c4        438
    x[56]     c5        748
    x[56]     c6        508
    x[56]     c1        920
    x[56]     OBJ       480
    x[57]     c2        379
    x[57]     c3        975
    x[57]     c4        521
    x[57]     c5        100
    x[57]     c6        217
    x[57]     c1        425
    x[57]     OBJ       -236
    x[58]     c2        923
    x[58]     c3        345
    x[58]     c4        848
    x[58]     c5        674
    x[58]     c6        992
    x[58]     c1        170
    x[58]     OBJ       -857
    x[59]     c2        922
    x[59]     c3        416
    x[59]     c4        236
    x[59]     c5        829
    x[59]     c6        924
    x[59]     c1        955
    x[59]     OBJ       -170
    x[60]     c2        755
    x[60]     c3        588
    x[60]     c4        435
    x[60]     c5        942
    x[60]     c6        221
    x[60]     c1        581
    x[60]     OBJ       -234
    x[61]     c2        109
    x[61]     c3        981
    x[61]     c4        5
    x[61]     c5        251
    x[61]     c6        130
    x[61]     c1        739
    x[61]     OBJ       -13
    x[62]     c2        612
    x[62]     c3        339
    x[62]     c4        534
    x[62]     c5        169
    x[62]     c6        902
    x[62]     c1        622
    x[62]     OBJ       -306
    x[63]     c2        765
    x[63]     c3        241
    x[63]     c4        663
    x[63]     c5        727
    x[63]     c6        816
    x[63]     c1        473
    x[63]     OBJ       -343
    x[64]     c2        984
    x[64]     c3        715
    x[64]     c4        236
    x[64]     c5        416
    x[64]     c6        514
    x[64]     c1        789
    x[64]     OBJ       -59
    x[65]     c2        214
    x[65]     c3        777
    x[65]     c4        544
    x[65]     c5        248
    x[65]     c6        216
    x[65]     c1        946
    x[65]     OBJ       138
    x[66]     c2        317
    x[66]     c3        962
    x[66]     c4        68
    x[66]     c5        133
    x[66]     c6        295
    x[66]     c1        499
    x[66]     OBJ       -203
    x[67]     c2        563
    x[67]     c3        790
    x[67]     c4        534
    x[67]     c5        224
    x[67]     c6        261
    x[67]     c1        666
    x[67]     OBJ       -225
    x[68]     c2        723
    x[68]     c3        541
    x[68]     c4        971
    x[68]     c5        659
    x[68]     c6        216
    x[68]     c1        546
    x[68]     OBJ       -179
    x[69]     c2        769
    x[69]     c3        598
    x[69]     c4        944
    x[69]     c5        305
    x[69]     c6        134
    x[69]     c1        630
    x[69]     OBJ       -101
    x[70]     c2        30
    x[70]     c3        619
    x[70]     c4        657
    x[70]     c5        298
    x[70]     c6        134
    x[70]     c1        997
    x[70]     OBJ       518
    x[71]     c2        298
    x[71]     c3        216
    x[71]     c4        626
    x[71]     c5        439
    x[71]     c6        606
    x[71]     c1        462
    x[71]     OBJ       -327
    x[72]     c2        547
    x[72]     c3        772
    x[72]     c4        862
    x[72]     c5        953
    x[72]     c6        495
    x[72]     c1        750
    x[72]     OBJ       -438
    x[73]     c2        550
    x[73]     c3        416
    x[73]     c4        434
    x[73]     c5        366
    x[73]     c6        797
    x[73]     c1        841
    x[73]     OBJ       -1
    x[74]     c2        325
    x[74]     c3        940
    x[74]     c4        982
    x[74]     c5        651
    x[74]     c6        716
    x[74]     c1        795
    x[74]     OBJ       -262
    x[75]     c2        854
    x[75]     c3        879
    x[75]     c4        315
    x[75]     c5        350
    x[75]     c6        352
    x[75]     c1        2
    x[75]     OBJ       -602
    x[76]     c2        468
    x[76]     c3        923
    x[76]     c4        494
    x[76]     c5        767
    x[76]     c6        336
    x[76]     c1        522
    x[76]     OBJ       -207
    x[77]     c2        114
    x[77]     c3        27
    x[77]     c4        6
    x[77]     c5        102
    x[77]     c6        430
    x[77]     c1        778
    x[77]     OBJ       269
    x[78]     c2        941
    x[78]     c3        763
    x[78]     c4        172
    x[78]     c5        733
    x[78]     c6        21
    x[78]     c1        42
    x[78]     OBJ       -805
    x[79]     c2        503
    x[79]     c3        712
    x[79]     c4        342
    x[79]     c5        102
    x[79]     c6        912
    x[79]     c1        714
    x[79]     OBJ       -120
    x[80]     c2        945
    x[80]     c3        48
    x[80]     c4        326
    x[80]     c5        5
    x[80]     c6        17
    x[80]     c1        645
    x[80]     OBJ       -133
    x[81]     c2        141
    x[81]     c3        692
    x[81]     c4        446
    x[81]     c5        890
    x[81]     c6        114
    x[81]     c1        855
    x[81]     OBJ       357
    x[82]     c2        10
    x[82]     c3        857
    x[82]     c4        333
    x[82]     c5        876
    x[82]     c6        755
    x[82]     c1        396
    x[82]     OBJ       -292
    x[83]     c2        663
    x[83]     c3        750
    x[83]     c4        540
    x[83]     c5        133
    x[83]     c6        952
    x[83]     c1        768
    x[83]     OBJ       -252
    x[84]     c2        47
    x[84]     c3        966
    x[84]     c4        373
    x[84]     c5        951
    x[84]     c6        423
    x[84]     c1        392
    x[84]     OBJ       -247
    x[85]     c2        313
    x[85]     c3        676
    x[85]     c4        546
    x[85]     c5        773
    x[85]     c6        610
    x[85]     c1        141
    x[85]     OBJ       -449
    x[86]     c2        362
    x[86]     c3        300
    x[86]     c4        380
    x[86]     c5        174
    x[86]     c6        990
    x[86]     c1        544
    x[86]     OBJ       -111
    x[87]     c2        799
    x[87]     c3        786
    x[87]     c4        8
    x[87]     c5        65
    x[87]     c6        217
    x[87]     c1        847
    x[87]     OBJ       295
    x[88]     c2        477
    x[88]     c3        7
    x[88]     c4        114
    x[88]     c5        824
    x[88]     c6        144
    x[88]     c1        263
    x[88]     OBJ       -507
    x[89]     c2        807
    x[89]     c3        447
    x[89]     c4        949
    x[89]     c5        834
    x[89]     c6        389
    x[89]     c1        325
    x[89]     OBJ       -448
    x[90]     c2        603
    x[90]     c3        431
    x[90]     c4        318
    x[90]     c5        713
    x[90]     c6        862
    x[90]     c1        227
    x[90]     OBJ       -752
    x[91]     c2        166
    x[91]     c3        986
    x[91]     c4        638
    x[91]     c5        281
    x[91]     c6        816
    x[91]     c1        765
    x[91]     OBJ       -230
    x[92]     c2        468
    x[92]     c3        563
    x[92]     c4        874
    x[92]     c5        803
    x[92]     c6        230
    x[92]     c1        128
    x[92]     OBJ       -470
    x[93]     c2        266
    x[93]     c3        489
    x[93]     c4        197
    x[93]     c5        324
    x[93]     c6        365
    x[93]     c1        10
    x[93]     OBJ       -365
    x[94]     c2        188
    x[94]     c3        682
    x[94]     c4        125
    x[94]     c5        429
    x[94]     c6        565
    x[94]     c1        973
    x[94]     OBJ       142
    x[95]     c2        642
    x[95]     c3        897
    x[95]     c4        204
    x[95]     c5        687
    x[95]     c6        168
    x[95]     c1        162
    x[95]     OBJ       -734
    x[96]     c2        354
    x[96]     c3        76
    x[96]     c4        955
    x[96]     c5        714
    x[96]     c6        106
    x[96]     c1        743
    x[96]     OBJ       280
    x[97]     c2        176
    x[97]     c3        571
    x[97]     c4        301
    x[97]     c5        91
    x[97]     c6        384
    x[97]     c1        208
    x[97]     OBJ       -313
    x[98]     c2        340
    x[98]     c3        969
    x[98]     c4        632
    x[98]     c5        66
    x[98]     c6        232
    x[98]     c1        223
    x[98]     OBJ       -640
    x[99]     c2        738
    x[99]     c3        828
    x[99]     c4        298
    x[99]     c5        720
    x[99]     c6        995
    x[99]     c1        981
    x[99]     OBJ       -55
    x[100]    c2        927
    x[100]    c3        493
    x[100]    c4        229
    x[100]    c5        803
    x[100]    c6        766
    x[100]    c1        143
    x[100]    OBJ       -779
RHS
    rhs       c2        22986
    rhs       c3        26540
    rhs       c4        22447
    rhs       c5        26202
    rhs       c6        26098
    rhs       c1        2632
RANGES
BOUNDS
 LO bounds    ss[1]     0
 PL bounds    ss[1]
 MI bounds    s[1]
 UP bounds    s[1]      0
 MI bounds    s[2]
 UP bounds    s[2]      0
 MI bounds    s[3]
 UP bounds    s[3]      0
 MI bounds    s[4]
 UP bounds    s[4]      0
 MI bounds    s[5]
 UP bounds    s[5]      0
 BV bounds    x[1]
 BV bounds    x[2]
 BV bounds    x[3]
 BV bounds    x[4]
 BV bounds    x[5]
 BV bounds    x[6]
 BV bounds    x[7]
 BV bounds    x[8]
 BV bounds    x[9]
 BV bounds    x[10]
 BV bounds    x[11]
 BV bounds    x[12]
 BV bounds    x[13]
 BV bounds    x[14]
 BV bounds    x[15]
 BV bounds    x[16]
 BV bounds    x[17]
 BV bounds    x[18]
 BV bounds    x[19]
 BV bounds    x[20]
 BV bounds    x[21]
 BV bounds    x[22]
 BV bounds    x[23]
 BV bounds    x[24]
 BV bounds    x[25]
 BV bounds    x[26]
 BV bounds    x[27]
 BV bounds    x[28]
 BV bounds    x[29]
 BV bounds    x[30]
 BV bounds    x[31]
 BV bounds    x[32]
 BV bounds    x[33]
 BV bounds    x[34]
 BV bounds    x[35]
 BV bounds    x[36]
 BV bounds    x[37]
 BV bounds    x[38]
 BV bounds    x[39]
 BV bounds    x[40]
 BV bounds    x[41]
 BV bounds    x[42]
 BV bounds    x[43]
 BV bounds    x[44]
 BV bounds    x[45]
 BV bounds    x[46]
 BV bounds    x[47]
 BV bounds    x[48]
 BV bounds    x[49]
 BV bounds    x[50]
 BV bounds    x[51]
 BV bounds    x[52]
 BV bounds    x[53]
 BV bounds    x[54]
 BV bounds    x[55]
 BV bounds    x[56]
 BV bounds    x[57]
 BV bounds    x[58]
 BV bounds    x[59]
 BV bounds    x[60]
 BV bounds    x[61]
 BV bounds    x[62]
 BV bounds    x[63]
 BV bounds    x[64]
 BV bounds    x[65]
 BV bounds    x[66]
 BV bounds    x[67]
 BV bounds    x[68]
 BV bounds    x[69]
 BV bounds    x[70]
 BV bounds    x[71]
 BV bounds    x[72]
 BV bounds    x[73]
 BV bounds    x[74]
 BV bounds    x[75]
 BV bounds    x[76]
 BV bounds    x[77]
 BV bounds    x[78]
 BV bounds    x[79]
 BV bounds    x[80]
 BV bounds    x[81]
 BV bounds    x[82]
 BV bounds    x[83]
 BV bounds    x[84]
 BV bounds    x[85]
 BV bounds    x[86]
 BV bounds    x[87]
 BV bounds    x[88]
 BV bounds    x[89]
 BV bounds    x[90]
 BV bounds    x[91]
 BV bounds    x[92]
 BV bounds    x[93]
 BV bounds    x[94]
 BV bounds    x[95]
 BV bounds    x[96]
 BV bounds    x[97]
 BV bounds    x[98]
 BV bounds    x[99]
 BV bounds    x[100]
ENDATA
